/* Objective function */
max: +490.726 Product 1 +213.60007 Product 2 +611.3053 Product 3 +412.46491 Product 4 +703.01489 Product 5
 +514.52871 Product 6 +772.99246 Product 7 +320.01358 Product 8 +751.2531 Product 9;

/* Constraints */
1 Lower Constraint: +Product 1 >= 3.80720358045;
1 Upper Constraint: +Product 1 <= 4.257;
2 Lower Constraint: +Product 2 >= 7.52995213067;
2 Upper Constraint: +Product 2 <= 8.063;
3 Lower Constraint: +Product 3 >= 2.42919450616;
3 Upper Constraint: +Product 3 <= 2.596;
4 Lower Constraint: +Product 4 >= 4.356;
4 Upper Constraint: +Product 4 <= 5.324;
5 Lower Constraint: +Product 5 >= 1.20775274444;
5 Upper Constraint: +Product 5 <= 1.331;
6 Lower Constraint: +Product 6 >= 3.213;
6 Upper Constraint: +Product 6 <= 3.927;
7 Lower Constraint: +Product 7 >= 0.306;
7 Upper Constraint: +Product 7 <= 0.374;
8 Lower Constraint: +Product 8 >= 6.432389664;
8 Upper Constraint: +Product 8 <= 6.6;
9 Lower Constraint: +Product 9 >= 0.61800602369;
9 Upper Constraint: +Product 9 <= 0.671;
Overall Lower: +490.726 Product 1 +213.60007 Product 2 +611.3053 Product 3 +412.46491 Product 4 +703.01489 Product 5
 +514.52871 Product 6 +772.99246 Product 7 +320.01358 Product 8 +751.2531 Product 9 <= 12721.7871295;
Overall Upper: +490.726 Product 1 +213.60007 Product 2 +611.3053 Product 3 +412.46491 Product 4 +703.01489 Product 5
 +514.52871 Product 6 +772.99246 Product 7 +320.01358 Product 8 +751.2531 Product 9 >= 12477.137377;
